28 41 12 30 56 61 53 47 51 70 78 24 25 35 14 52 54 13 6 15 67 3 50 19 37 77 58 59 57 60 43 45 68 21 26 75 55 31 20 66 49 63 62 46 76 72 71 69 34 7 8 79 36 9 11 32 5 17 29 4 18 38 48 40 42 23 39 44 27 22 65 33 16 80 74 64 2 81 10 1 73 